GLPSOL--GLPK LP/MIP Solver 5.0
Parameter(s) specified in the command line:
 --lp ../modeles/3_69.lp --log 3_69.log
Reading problem data from '../modeles/3_69.lp'...
220 rows, 420 columns, 1464 non-zeros
207 integer variables, all of which are binary
649 lines were read
GLPK Integer Optimizer 5.0
220 rows, 420 columns, 1464 non-zeros
207 integer variables, all of which are binary
Preprocessing...
210 constraint coefficient(s) were reduced
220 rows, 417 columns, 1461 non-zeros
207 integer variables, all of which are binary
Scaling...
 A: min|aij| =  8.402e-04  max|aij| =  4.000e+00  ratio =  4.761e+03
GM: min|aij| =  1.204e-01  max|aij| =  8.307e+00  ratio =  6.900e+01
EQ: min|aij| =  1.449e-02  max|aij| =  1.000e+00  ratio =  6.900e+01
2N: min|aij| =  1.344e-02  max|aij| =  1.695e+00  ratio =  1.261e+02
Constructing initial basis...
Size of triangular part is 220
Solving LP relaxation...
GLPK Simplex Optimizer 5.0
220 rows, 417 columns, 1461 non-zeros
      0: obj =   6.000000000e+00 inf =   1.450e+01 (7)
     32: obj =   4.988445378e-01 inf =   0.000e+00 (0)
*    90: obj =  -1.729891304e+00 inf =   0.000e+00 (0)
OPTIMAL LP SOLUTION FOUND
Integer optimization begins...
Long-step dual simplex will be used
+    90: mip =     not found yet >=              -inf        (1; 0)
+   199: >>>>>  -1.729891304e+00 >=  -1.729891304e+00 < 0.1% (108; 0)
+   199: mip =  -1.729891304e+00 >=     tree is empty   0.0% (0; 215)
INTEGER OPTIMAL SOLUTION FOUND
Time used:   0.0 secs
Memory used: 0.7 Mb (689803 bytes)
